p cnf 315 2178
1 2 3 4 5 6 7 0
8 9 10 11 12 13 14 0
15 16 17 18 19 20 21 0
22 23 24 25 26 27 28 0
29 30 31 32 33 34 35 0
36 37 38 39 40 41 42 0
43 44 45 46 47 48 49 0
50 51 52 53 54 55 56 0
57 58 59 60 61 62 63 0
64 65 66 67 68 69 70 0
71 72 73 74 75 76 77 0
78 79 80 81 82 83 84 0
85 86 87 88 89 90 91 0
92 93 94 95 96 97 98 0
99 100 101 102 103 104 105 0
106 107 108 109 110 111 112 0
113 114 115 116 117 118 119 0
120 121 122 123 124 125 126 0
127 128 129 130 131 132 133 0
134 135 136 137 138 139 140 0
141 142 143 144 145 146 147 0
148 149 150 151 152 153 154 0
155 156 157 158 159 160 161 0
162 163 164 165 166 167 168 0
169 170 171 172 173 174 175 0
176 177 178 179 180 181 182 0
183 184 185 186 187 188 189 0
190 191 192 193 194 195 196 0
197 198 199 200 201 202 203 0
204 205 206 207 208 209 210 0
211 212 213 214 215 216 217 0
218 219 220 221 222 223 224 0
225 226 227 228 229 230 231 0
232 233 234 235 236 237 238 0
239 240 241 242 243 244 245 0
246 247 248 249 250 251 252 0
253 254 255 256 257 258 259 0
260 261 262 263 264 265 266 0
267 268 269 270 271 272 273 0
274 275 276 277 278 279 280 0
281 282 283 284 285 286 287 0
288 289 290 291 292 293 294 0
295 296 297 298 299 300 301 0
302 303 304 305 306 307 308 0
309 310 311 312 313 314 315 0
-1 -2 0
-1 -3 0
-1 -4 0
-1 -5 0
-1 -6 0
-1 -7 0
-2 -3 0
-2 -4 0
-2 -5 0
-2 -6 0
-2 -7 0
-3 -4 0
-3 -5 0
-3 -6 0
-3 -7 0
-4 -5 0
-4 -6 0
-4 -7 0
-5 -6 0
-5 -7 0
-6 -7 0
-8 -9 0
-8 -10 0
-8 -11 0
-8 -12 0
-8 -13 0
-8 -14 0
-9 -10 0
-9 -11 0
-9 -12 0
-9 -13 0
-9 -14 0
-10 -11 0
-10 -12 0
-10 -13 0
-10 -14 0
-11 -12 0
-11 -13 0
-11 -14 0
-12 -13 0
-12 -14 0
-13 -14 0
-15 -16 0
-15 -17 0
-15 -18 0
-15 -19 0
-15 -20 0
-15 -21 0
-16 -17 0
-16 -18 0
-16 -19 0
-16 -20 0
-16 -21 0
-17 -18 0
-17 -19 0
-17 -20 0
-17 -21 0
-18 -19 0
-18 -20 0
-18 -21 0
-19 -20 0
-19 -21 0
-20 -21 0
-22 -23 0
-22 -24 0
-22 -25 0
-22 -26 0
-22 -27 0
-22 -28 0
-23 -24 0
-23 -25 0
-23 -26 0
-23 -27 0
-23 -28 0
-24 -25 0
-24 -26 0
-24 -27 0
-24 -28 0
-25 -26 0
-25 -27 0
-25 -28 0
-26 -27 0
-26 -28 0
-27 -28 0
-29 -30 0
-29 -31 0
-29 -32 0
-29 -33 0
-29 -34 0
-29 -35 0
-30 -31 0
-30 -32 0
-30 -33 0
-30 -34 0
-30 -35 0
-31 -32 0
-31 -33 0
-31 -34 0
-31 -35 0
-32 -33 0
-32 -34 0
-32 -35 0
-33 -34 0
-33 -35 0
-34 -35 0
-36 -37 0
-36 -38 0
-36 -39 0
-36 -40 0
-36 -41 0
-36 -42 0
-37 -38 0
-37 -39 0
-37 -40 0
-37 -41 0
-37 -42 0
-38 -39 0
-38 -40 0
-38 -41 0
-38 -42 0
-39 -40 0
-39 -41 0
-39 -42 0
-40 -41 0
-40 -42 0
-41 -42 0
-43 -44 0
-43 -45 0
-43 -46 0
-43 -47 0
-43 -48 0
-43 -49 0
-44 -45 0
-44 -46 0
-44 -47 0
-44 -48 0
-44 -49 0
-45 -46 0
-45 -47 0
-45 -48 0
-45 -49 0
-46 -47 0
-46 -48 0
-46 -49 0
-47 -48 0
-47 -49 0
-48 -49 0
-50 -51 0
-50 -52 0
-50 -53 0
-50 -54 0
-50 -55 0
-50 -56 0
-51 -52 0
-51 -53 0
-51 -54 0
-51 -55 0
-51 -56 0
-52 -53 0
-52 -54 0
-52 -55 0
-52 -56 0
-53 -54 0
-53 -55 0
-53 -56 0
-54 -55 0
-54 -56 0
-55 -56 0
-57 -58 0
-57 -59 0
-57 -60 0
-57 -61 0
-57 -62 0
-57 -63 0
-58 -59 0
-58 -60 0
-58 -61 0
-58 -62 0
-58 -63 0
-59 -60 0
-59 -61 0
-59 -62 0
-59 -63 0
-60 -61 0
-60 -62 0
-60 -63 0
-61 -62 0
-61 -63 0
-62 -63 0
-64 -65 0
-64 -66 0
-64 -67 0
-64 -68 0
-64 -69 0
-64 -70 0
-65 -66 0
-65 -67 0
-65 -68 0
-65 -69 0
-65 -70 0
-66 -67 0
-66 -68 0
-66 -69 0
-66 -70 0
-67 -68 0
-67 -69 0
-67 -70 0
-68 -69 0
-68 -70 0
-69 -70 0
-71 -72 0
-71 -73 0
-71 -74 0
-71 -75 0
-71 -76 0
-71 -77 0
-72 -73 0
-72 -74 0
-72 -75 0
-72 -76 0
-72 -77 0
-73 -74 0
-73 -75 0
-73 -76 0
-73 -77 0
-74 -75 0
-74 -76 0
-74 -77 0
-75 -76 0
-75 -77 0
-76 -77 0
-78 -79 0
-78 -80 0
-78 -81 0
-78 -82 0
-78 -83 0
-78 -84 0
-79 -80 0
-79 -81 0
-79 -82 0
-79 -83 0
-79 -84 0
-80 -81 0
-80 -82 0
-80 -83 0
-80 -84 0
-81 -82 0
-81 -83 0
-81 -84 0
-82 -83 0
-82 -84 0
-83 -84 0
-85 -86 0
-85 -87 0
-85 -88 0
-85 -89 0
-85 -90 0
-85 -91 0
-86 -87 0
-86 -88 0
-86 -89 0
-86 -90 0
-86 -91 0
-87 -88 0
-87 -89 0
-87 -90 0
-87 -91 0
-88 -89 0
-88 -90 0
-88 -91 0
-89 -90 0
-89 -91 0
-90 -91 0
-92 -93 0
-92 -94 0
-92 -95 0
-92 -96 0
-92 -97 0
-92 -98 0
-93 -94 0
-93 -95 0
-93 -96 0
-93 -97 0
-93 -98 0
-94 -95 0
-94 -96 0
-94 -97 0
-94 -98 0
-95 -96 0
-95 -97 0
-95 -98 0
-96 -97 0
-96 -98 0
-97 -98 0
-99 -100 0
-99 -101 0
-99 -102 0
-99 -103 0
-99 -104 0
-99 -105 0
-100 -101 0
-100 -102 0
-100 -103 0
-100 -104 0
-100 -105 0
-101 -102 0
-101 -103 0
-101 -104 0
-101 -105 0
-102 -103 0
-102 -104 0
-102 -105 0
-103 -104 0
-103 -105 0
-104 -105 0
-106 -107 0
-106 -108 0
-106 -109 0
-106 -110 0
-106 -111 0
-106 -112 0
-107 -108 0
-107 -109 0
-107 -110 0
-107 -111 0
-107 -112 0
-108 -109 0
-108 -110 0
-108 -111 0
-108 -112 0
-109 -110 0
-109 -111 0
-109 -112 0
-110 -111 0
-110 -112 0
-111 -112 0
-113 -114 0
-113 -115 0
-113 -116 0
-113 -117 0
-113 -118 0
-113 -119 0
-114 -115 0
-114 -116 0
-114 -117 0
-114 -118 0
-114 -119 0
-115 -116 0
-115 -117 0
-115 -118 0
-115 -119 0
-116 -117 0
-116 -118 0
-116 -119 0
-117 -118 0
-117 -119 0
-118 -119 0
-120 -121 0
-120 -122 0
-120 -123 0
-120 -124 0
-120 -125 0
-120 -126 0
-121 -122 0
-121 -123 0
-121 -124 0
-121 -125 0
-121 -126 0
-122 -123 0
-122 -124 0
-122 -125 0
-122 -126 0
-123 -124 0
-123 -125 0
-123 -126 0
-124 -125 0
-124 -126 0
-125 -126 0
-127 -128 0
-127 -129 0
-127 -130 0
-127 -131 0
-127 -132 0
-127 -133 0
-128 -129 0
-128 -130 0
-128 -131 0
-128 -132 0
-128 -133 0
-129 -130 0
-129 -131 0
-129 -132 0
-129 -133 0
-130 -131 0
-130 -132 0
-130 -133 0
-131 -132 0
-131 -133 0
-132 -133 0
-134 -135 0
-134 -136 0
-134 -137 0
-134 -138 0
-134 -139 0
-134 -140 0
-135 -136 0
-135 -137 0
-135 -138 0
-135 -139 0
-135 -140 0
-136 -137 0
-136 -138 0
-136 -139 0
-136 -140 0
-137 -138 0
-137 -139 0
-137 -140 0
-138 -139 0
-138 -140 0
-139 -140 0
-141 -142 0
-141 -143 0
-141 -144 0
-141 -145 0
-141 -146 0
-141 -147 0
-142 -143 0
-142 -144 0
-142 -145 0
-142 -146 0
-142 -147 0
-143 -144 0
-143 -145 0
-143 -146 0
-143 -147 0
-144 -145 0
-144 -146 0
-144 -147 0
-145 -146 0
-145 -147 0
-146 -147 0
-148 -149 0
-148 -150 0
-148 -151 0
-148 -152 0
-148 -153 0
-148 -154 0
-149 -150 0
-149 -151 0
-149 -152 0
-149 -153 0
-149 -154 0
-150 -151 0
-150 -152 0
-150 -153 0
-150 -154 0
-151 -152 0
-151 -153 0
-151 -154 0
-152 -153 0
-152 -154 0
-153 -154 0
-155 -156 0
-155 -157 0
-155 -158 0
-155 -159 0
-155 -160 0
-155 -161 0
-156 -157 0
-156 -158 0
-156 -159 0
-156 -160 0
-156 -161 0
-157 -158 0
-157 -159 0
-157 -160 0
-157 -161 0
-158 -159 0
-158 -160 0
-158 -161 0
-159 -160 0
-159 -161 0
-160 -161 0
-162 -163 0
-162 -164 0
-162 -165 0
-162 -166 0
-162 -167 0
-162 -168 0
-163 -164 0
-163 -165 0
-163 -166 0
-163 -167 0
-163 -168 0
-164 -165 0
-164 -166 0
-164 -167 0
-164 -168 0
-165 -166 0
-165 -167 0
-165 -168 0
-166 -167 0
-166 -168 0
-167 -168 0
-169 -170 0
-169 -171 0
-169 -172 0
-169 -173 0
-169 -174 0
-169 -175 0
-170 -171 0
-170 -172 0
-170 -173 0
-170 -174 0
-170 -175 0
-171 -172 0
-171 -173 0
-171 -174 0
-171 -175 0
-172 -173 0
-172 -174 0
-172 -175 0
-173 -174 0
-173 -175 0
-174 -175 0
-176 -177 0
-176 -178 0
-176 -179 0
-176 -180 0
-176 -181 0
-176 -182 0
-177 -178 0
-177 -179 0
-177 -180 0
-177 -181 0
-177 -182 0
-178 -179 0
-178 -180 0
-178 -181 0
-178 -182 0
-179 -180 0
-179 -181 0
-179 -182 0
-180 -181 0
-180 -182 0
-181 -182 0
-183 -184 0
-183 -185 0
-183 -186 0
-183 -187 0
-183 -188 0
-183 -189 0
-184 -185 0
-184 -186 0
-184 -187 0
-184 -188 0
-184 -189 0
-185 -186 0
-185 -187 0
-185 -188 0
-185 -189 0
-186 -187 0
-186 -188 0
-186 -189 0
-187 -188 0
-187 -189 0
-188 -189 0
-190 -191 0
-190 -192 0
-190 -193 0
-190 -194 0
-190 -195 0
-190 -196 0
-191 -192 0
-191 -193 0
-191 -194 0
-191 -195 0
-191 -196 0
-192 -193 0
-192 -194 0
-192 -195 0
-192 -196 0
-193 -194 0
-193 -195 0
-193 -196 0
-194 -195 0
-194 -196 0
-195 -196 0
-197 -198 0
-197 -199 0
-197 -200 0
-197 -201 0
-197 -202 0
-197 -203 0
-198 -199 0
-198 -200 0
-198 -201 0
-198 -202 0
-198 -203 0
-199 -200 0
-199 -201 0
-199 -202 0
-199 -203 0
-200 -201 0
-200 -202 0
-200 -203 0
-201 -202 0
-201 -203 0
-202 -203 0
-204 -205 0
-204 -206 0
-204 -207 0
-204 -208 0
-204 -209 0
-204 -210 0
-205 -206 0
-205 -207 0
-205 -208 0
-205 -209 0
-205 -210 0
-206 -207 0
-206 -208 0
-206 -209 0
-206 -210 0
-207 -208 0
-207 -209 0
-207 -210 0
-208 -209 0
-208 -210 0
-209 -210 0
-211 -212 0
-211 -213 0
-211 -214 0
-211 -215 0
-211 -216 0
-211 -217 0
-212 -213 0
-212 -214 0
-212 -215 0
-212 -216 0
-212 -217 0
-213 -214 0
-213 -215 0
-213 -216 0
-213 -217 0
-214 -215 0
-214 -216 0
-214 -217 0
-215 -216 0
-215 -217 0
-216 -217 0
-218 -219 0
-218 -220 0
-218 -221 0
-218 -222 0
-218 -223 0
-218 -224 0
-219 -220 0
-219 -221 0
-219 -222 0
-219 -223 0
-219 -224 0
-220 -221 0
-220 -222 0
-220 -223 0
-220 -224 0
-221 -222 0
-221 -223 0
-221 -224 0
-222 -223 0
-222 -224 0
-223 -224 0
-225 -226 0
-225 -227 0
-225 -228 0
-225 -229 0
-225 -230 0
-225 -231 0
-226 -227 0
-226 -228 0
-226 -229 0
-226 -230 0
-226 -231 0
-227 -228 0
-227 -229 0
-227 -230 0
-227 -231 0
-228 -229 0
-228 -230 0
-228 -231 0
-229 -230 0
-229 -231 0
-230 -231 0
-232 -233 0
-232 -234 0
-232 -235 0
-232 -236 0
-232 -237 0
-232 -238 0
-233 -234 0
-233 -235 0
-233 -236 0
-233 -237 0
-233 -238 0
-234 -235 0
-234 -236 0
-234 -237 0
-234 -238 0
-235 -236 0
-235 -237 0
-235 -238 0
-236 -237 0
-236 -238 0
-237 -238 0
-239 -240 0
-239 -241 0
-239 -242 0
-239 -243 0
-239 -244 0
-239 -245 0
-240 -241 0
-240 -242 0
-240 -243 0
-240 -244 0
-240 -245 0
-241 -242 0
-241 -243 0
-241 -244 0
-241 -245 0
-242 -243 0
-242 -244 0
-242 -245 0
-243 -244 0
-243 -245 0
-244 -245 0
-246 -247 0
-246 -248 0
-246 -249 0
-246 -250 0
-246 -251 0
-246 -252 0
-247 -248 0
-247 -249 0
-247 -250 0
-247 -251 0
-247 -252 0
-248 -249 0
-248 -250 0
-248 -251 0
-248 -252 0
-249 -250 0
-249 -251 0
-249 -252 0
-250 -251 0
-250 -252 0
-251 -252 0
-253 -254 0
-253 -255 0
-253 -256 0
-253 -257 0
-253 -258 0
-253 -259 0
-254 -255 0
-254 -256 0
-254 -257 0
-254 -258 0
-254 -259 0
-255 -256 0
-255 -257 0
-255 -258 0
-255 -259 0
-256 -257 0
-256 -258 0
-256 -259 0
-257 -258 0
-257 -259 0
-258 -259 0
-260 -261 0
-260 -262 0
-260 -263 0
-260 -264 0
-260 -265 0
-260 -266 0
-261 -262 0
-261 -263 0
-261 -264 0
-261 -265 0
-261 -266 0
-262 -263 0
-262 -264 0
-262 -265 0
-262 -266 0
-263 -264 0
-263 -265 0
-263 -266 0
-264 -265 0
-264 -266 0
-265 -266 0
-267 -268 0
-267 -269 0
-267 -270 0
-267 -271 0
-267 -272 0
-267 -273 0
-268 -269 0
-268 -270 0
-268 -271 0
-268 -272 0
-268 -273 0
-269 -270 0
-269 -271 0
-269 -272 0
-269 -273 0
-270 -271 0
-270 -272 0
-270 -273 0
-271 -272 0
-271 -273 0
-272 -273 0
-274 -275 0
-274 -276 0
-274 -277 0
-274 -278 0
-274 -279 0
-274 -280 0
-275 -276 0
-275 -277 0
-275 -278 0
-275 -279 0
-275 -280 0
-276 -277 0
-276 -278 0
-276 -279 0
-276 -280 0
-277 -278 0
-277 -279 0
-277 -280 0
-278 -279 0
-278 -280 0
-279 -280 0
-281 -282 0
-281 -283 0
-281 -284 0
-281 -285 0
-281 -286 0
-281 -287 0
-282 -283 0
-282 -284 0
-282 -285 0
-282 -286 0
-282 -287 0
-283 -284 0
-283 -285 0
-283 -286 0
-283 -287 0
-284 -285 0
-284 -286 0
-284 -287 0
-285 -286 0
-285 -287 0
-286 -287 0
-288 -289 0
-288 -290 0
-288 -291 0
-288 -292 0
-288 -293 0
-288 -294 0
-289 -290 0
-289 -291 0
-289 -292 0
-289 -293 0
-289 -294 0
-290 -291 0
-290 -292 0
-290 -293 0
-290 -294 0
-291 -292 0
-291 -293 0
-291 -294 0
-292 -293 0
-292 -294 0
-293 -294 0
-295 -296 0
-295 -297 0
-295 -298 0
-295 -299 0
-295 -300 0
-295 -301 0
-296 -297 0
-296 -298 0
-296 -299 0
-296 -300 0
-296 -301 0
-297 -298 0
-297 -299 0
-297 -300 0
-297 -301 0
-298 -299 0
-298 -300 0
-298 -301 0
-299 -300 0
-299 -301 0
-300 -301 0
-302 -303 0
-302 -304 0
-302 -305 0
-302 -306 0
-302 -307 0
-302 -308 0
-303 -304 0
-303 -305 0
-303 -306 0
-303 -307 0
-303 -308 0
-304 -305 0
-304 -306 0
-304 -307 0
-304 -308 0
-305 -306 0
-305 -307 0
-305 -308 0
-306 -307 0
-306 -308 0
-307 -308 0
-309 -310 0
-309 -311 0
-309 -312 0
-309 -313 0
-309 -314 0
-309 -315 0
-310 -311 0
-310 -312 0
-310 -313 0
-310 -314 0
-310 -315 0
-311 -312 0
-311 -313 0
-311 -314 0
-311 -315 0
-312 -313 0
-312 -314 0
-312 -315 0
-313 -314 0
-313 -315 0
-314 -315 0
-6 -43 0
-6 -48 0
-5 -43 0
-6 -44 0
-1 -60 0
-5 -57 0
-5 -59 0
-2 -59 0
-6 -74 0
-2 -72 0
-1 -76 0
-1 -72 0
-3 -78 0
-2 -78 0
-4 -79 0
-3 -84 0
-5 -94 0
-5 -95 0
-6 -94 0
-4 -97 0
-6 -179 0
-7 -176 0
-6 -182 0
-3 -180 0
-2 -189 0
-6 -187 0
-5 -187 0
-3 -185 0
-6 -200 0
-7 -200 0
-3 -199 0
-7 -202 0
-5 -220 0
-2 -223 0
-7 -220 0
-6 -221 0
-4 -258 0
-5 -258 0
-6 -253 0
-4 -255 0
-6 -290 0
-6 -293 0
-6 -288 0
-3 -291 0
-3 -307 0
-7 -305 0
-2 -307 0
-4 -302 0
-14 -40 0
-13 -41 0
-8 -38 0
-14 -42 0
-11 -63 0
-8 -60 0
-8 -58 0
-8 -62 0
-11 -78 0
-13 -82 0
-8 -79 0
-13 -83 0
-14 -129 0
-8 -133 0
-10 -129 0
-11 -127 0
-12 -148 0
-13 -154 0
-9 -152 0
-12 -150 0
-9 -217 0
-10 -213 0
-14 -215 0
-12 -217 0
-9 -275 0
-9 -279 0
-10 -274 0
-10 -278 0
-19 -34 0
-20 -32 0
-18 -31 0
-15 -30 0
-17 -77 0
-16 -76 0
-20 -72 0
-20 -77 0
-16 -91 0
-15 -88 0
-16 -87 0
-17 -91 0
-18 -96 0
-15 -93 0
-20 -98 0
-18 -93 0
-15 -120 0
-16 -124 0
-15 -123 0
-17 -126 0
-20 -149 0
-16 -150 0
-18 -151 0
-21 -148 0
-17 -187 0
-16 -187 0
-19 -183 0
-15 -187 0
-16 -196 0
-19 -191 0
-19 -194 0
-20 -192 0
-15 -219 0
-16 -219 0
-16 -218 0
-17 -222 0
-21 -231 0
-20 -225 0
-16 -231 0
-21 -225 0
-17 -236 0
-19 -236 0
-17 -232 0
-21 -238 0
-16 -284 0
-17 -287 0
-15 -282 0
-20 -287 0
-19 -289 0
-19 -288 0
-19 -292 0
-19 -294 0
-15 -308 0
-15 -305 0
-18 -307 0
-15 -304 0
-17 -315 0
-20 -313 0
-15 -310 0
-17 -313 0
-23 -31 0
-26 -31 0
-28 -34 0
-23 -30 0
-26 -45 0
-25 -45 0
-25 -44 0
-23 -49 0
-27 -52 0
-23 -52 0
-26 -53 0
-23 -51 0
-28 -64 0
-27 -70 0
-26 -68 0
-28 -68 0
-22 -85 0
-27 -85 0
-25 -89 0
-27 -88 0
-23 -121 0
-28 -120 0
-26 -123 0
-24 -120 0
-24 -146 0
-25 -145 0
-28 -146 0
-28 -144 0
-27 -180 0
-28 -178 0
-23 -180 0
-23 -178 0
-22 -204 0
-24 -209 0
-27 -207 0
-28 -208 0
-26 -240 0
-28 -244 0
-26 -241 0
-27 -242 0
-28 -253 0
-24 -258 0
-25 -255 0
-22 -257 0
-26 -274 0
-25 -279 0
-24 -280 0
-23 -274 0
-26 -312 0
-25 -315 0
-23 -310 0
-26 -309 0
-35 -64 0
-29 -67 0
-34 -69 0
-32 -64 0
-29 -78 0
-35 -80 0
-30 -84 0
-31 -78 0
-31 -85 0
-34 -85 0
-33 -90 0
-31 -90 0
-30 -98 0
-34 -95 0
-29 -96 0
-33 -92 0
-35 -132 0
-30 -133 0
-29 -130 0
-32 -128 0
-32 -139 0
-33 -135 0
-30 -138 0
-29 -140 0
-29 -174 0
-29 -172 0
-31 -172 0
-30 -174 0
-32 -200 0
-35 -198 0
-31 -203 0
-31 -202 0
-34 -210 0
-33 -208 0
-29 -205 0
-34 -208 0
-31 -218 0
-30 -220 0
-32 -219 0
-34 -224 0
-34 -234 0
-29 -237 0
-35 -234 0
-32 -232 0
-34 -261 0
-30 -264 0
-35 -260 0
-33 -262 0
-34 -275 0
-34 -277 0
-32 -279 0
-30 -276 0
-30 -298 0
-29 -296 0
-29 -301 0
-34 -295 0
-30 -303 0
-35 -304 0
-31 -307 0
-30 -304 0
-37 -46 0
-39 -45 0
-36 -44 0
-40 -43 0
-41 -51 0
-41 -52 0
-41 -53 0
-37 -54 0
-39 -75 0
-42 -72 0
-39 -71 0
-41 -76 0
-40 -89 0
-39 -87 0
-37 -91 0
-40 -85 0
-42 -102 0
-42 -101 0
-40 -101 0
-36 -101 0
-36 -130 0
-40 -130 0
-38 -127 0
-39 -127 0
-41 -140 0
-39 -136 0
-40 -135 0
-41 -138 0
-39 -145 0
-40 -147 0
-37 -143 0
-41 -146 0
-37 -155 0
-40 -159 0
-36 -159 0
-39 -158 0
-40 -180 0
-42 -176 0
-36 -181 0
-39 -176 0
-40 -194 0
-38 -191 0
-42 -191 0
-42 -192 0
-38 -227 0
-42 -225 0
-41 -226 0
-39 -231 0
-42 -242 0
-40 -240 0
-36 -241 0
-42 -241 0
-38 -248 0
-42 -250 0
-37 -250 0
-41 -252 0
-40 -272 0
-40 -270 0
-39 -273 0
-42 -270 0
-42 -274 0
-40 -274 0
-36 -275 0
-39 -276 0
-42 -291 0
-39 -294 0
-36 -288 0
-38 -290 0
-39 -307 0
-42 -306 0
-40 -306 0
-38 -304 0
-49 -70 0
-43 -70 0
-49 -69 0
-48 -69 0
-43 -130 0
-43 -131 0
-45 -131 0
-49 -131 0
-48 -160 0
-49 -157 0
-43 -156 0
-44 -160 0
-45 -176 0
-46 -177 0
-47 -178 0
-49 -178 0
-49 -193 0
-45 -194 0
-43 -195 0
-43 -192 0
-46 -216 0
-47 -212 0
-47 -214 0
-47 -216 0
-48 -222 0
-44 -220 0
-44 -224 0
-47 -220 0
-48 -226 0
-45 -230 0
-43 -231 0
-44 -226 0
-47 -249 0
-48 -248 0
-43 -250 0
-46 -247 0
-47 -258 0
-47 -256 0
-46 -254 0
-47 -257 0
-45 -260 0
-47 -261 0
-49 -262 0
-45 -264 0
-47 -279 0
-45 -280 0
-47 -278 0
-43 -276 0
-43 -291 0
-46 -288 0
-49 -294 0
-47 -292 0
-55 -82 0
-51 -79 0
-56 -84 0
-54 -81 0
-55 -112 0
-53 -108 0
-54 -110 0
-54 -106 0
-56 -118 0
-55 -113 0
-54 -113 0
-52 -114 0
-52 -150 0
-55 -151 0
-55 -149 0
-56 -148 0
-51 -172 0
-56 -169 0
-52 -174 0
-51 -170 0
-56 -187 0
-56 -188 0
-52 -188 0
-56 -183 0
-56 -195 0
-50 -193 0
-50 -190 0
-50 -196 0
-52 -204 0
-53 -210 0
-56 -209 0
-51 -205 0
-51 -231 0
-52 -226 0
-55 -227 0
-54 -231 0
-55 -233 0
-53 -235 0
-52 -234 0
-52 -238 0
-56 -245 0
-53 -243 0
-54 -239 0
-52 -245 0
-53 -248 0
-52 -252 0
-54 -251 0
-52 -250 0
-51 -286 0
-53 -285 0
-53 -283 0
-50 -285 0
-59 -67 0
-61 -68 0
-62 -66 0
-63 -65 0
-59 -73 0
-63 -72 0
-62 -72 0
-59 -77 0
-58 -84 0
-59 -83 0
-59 -81 0
-62 -83 0
-61 -88 0
-59 -89 0
-59 -86 0
-63 -87 0
-59 -112 0
-63 -110 0
-62 -112 0
-58 -107 0
-59 -196 0
-62 -195 0
-58 -190 0
-60 -194 0
-63 -197 0
-59 -201 0
-60 -201 0
-59 -203 0
-58 -292 0
-62 -293 0
-57 -288 0
-59 -291 0
-65 -81 0
-70 -78 0
-64 -79 0
-64 -83 0
-66 -138 0
-69 -138 0
-68 -137 0
-70 -134 0
-64 -202 0
-70 -202 0
-64 -199 0
-68 -197 0
-68 -218 0
-69 -219 0
-68 -224 0
-66 -222 0
-68 -256 0
-70 -257 0
-67 -256 0
-65 -257 0
-65 -289 0
-68 -293 0
-70 -289 0
-65 -291 0
-64 -305 0
-70 -307 0
-65 -303 0
-68 -305 0
-76 -88 0
-71 -91 0
-71 -86 0
-76 -90 0
-73 -140 0
-74 -138 0
-74 -140 0
-75 -135 0
-71 -161 0
-75 -158 0
-77 -159 0
-76 -160 0
-75 -168 0
-74 -165 0
-72 -164 0
-71 -167 0
-71 -176 0
-71 -182 0
-75 -178 0
-73 -176 0
-77 -232 0
-75 -232 0
-71 -237 0
-73 -232 0
-81 -116 0
-78 -115 0
-79 -114 0
-82 -116 0
-81 -146 0
-78 -146 0
-78 -145 0
-78 -147 0
-83 -178 0
-78 -181 0
-79 -177 0
-83 -180 0
-80 -270 0
-79 -271 0
-82 -268 0
-84 -273 0
-81 -276 0
-82 -280 0
-79 -274 0
-78 -280 0
-82 -314 0
-84 -314 0
-78 -315 0
-81 -311 0
-87 -111 0
-85 -106 0
-89 -107 0
-87 -112 0
-90 -121 0
-89 -123 0
-86 -122 0
-90 -125 0
-88 -127 0
-89 -132 0
-86 -131 0
-91 -127 0
-88 -135 0
-85 -137 0
-89 -134 0
-90 -140 0
-87 -157 0
-85 -156 0
-85 -160 0
-88 -156 0
-85 -220 0
-86 -219 0
-91 -220 0
-89 -219 0
-85 -228 0
-86 -231 0
-85 -230 0
-86 -228 0
-88 -240 0
-90 -241 0
-91 -241 0
-89 -245 0
-86 -258 0
-86 -259 0
-88 -256 0
-86 -253 0
-87 -274 0
-91 -274 0
-90 -280 0
-90 -274 0
-89 -289 0
-88 -291 0
-85 -290 0
-90 -292 0
-86 -296 0
-86 -297 0
-90 -299 0
-90 -296 0
-92 -105 0
-92 -101 0
-96 -100 0
-97 -101 0
-95 -113 0
-93 -115 0
-97 -118 0
-94 -117 0
-92 -131 0
-95 -129 0
-95 -127 0
-98 -131 0
-94 -140 0
-94 -138 0
-94 -135 0
-96 -140 0
-94 -147 0
-94 -144 0
-95 -143 0
-95 -145 0
-94 -162 0
-95 -164 0
-92 -168 0
-95 -163 0
-93 -171 0
-93 -170 0
-95 -174 0
-92 -171 0
-98 -190 0
-92 -190 0
-96 -193 0
-97 -193 0
-96 -212 0
-98 -211 0
-95 -216 0
-93 -217 0
-92 -234 0
-95 -235 0
-96 -233 0
-92 -233 0
-92 -260 0
-96 -264 0
-96 -262 0
-92 -266 0
-96 -279 0
-94 -279 0
-98 -279 0
-98 -274 0
-93 -291 0
-98 -292 0
-98 -288 0
-97 -294 0
-101 -159 0
-103 -156 0
-100 -159 0
-99 -155 0
-103 -178 0
-105 -178 0
-101 -179 0
-105 -180 0
-100 -202 0
-103 -200 0
-99 -202 0
-104 -199 0
-105 -224 0
-102 -222 0
-104 -219 0
-100 -222 0
-104 -226 0
-102 -226 0
-101 -231 0
-104 -229 0
-100 -255 0
-102 -258 0
-102 -255 0
-100 -259 0
-100 -263 0
-99 -260 0
-101 -262 0
-100 -262 0
-104 -269 0
-102 -267 0
-99 -267 0
-103 -270 0
-100 -305 0
-101 -307 0
-104 -302 0
-102 -308 0
-109 -128 0
-111 -132 0
-109 -133 0
-110 -132 0
-107 -135 0
-112 -135 0
-107 -137 0
-106 -140 0
-112 -148 0
-108 -149 0
-109 -153 0
-110 -150 0
-111 -176 0
-107 -179 0
-108 -180 0
-109 -177 0
-107 -185 0
-107 -183 0
-112 -187 0
-108 -189 0
-107 -197 0
-110 -201 0
-112 -203 0
-108 -200 0
-110 -223 0
-109 -218 0
-108 -222 0
-108 -223 0
-110 -236 0
-107 -233 0
-111 -238 0
-109 -232 0
-106 -253 0
-106 -254 0
-106 -259 0
-107 -257 0
-106 -296 0
-109 -295 0
-111 -301 0
-111 -300 0
-110 -303 0
-109 -303 0
-110 -302 0
-106 -307 0
-115 -150 0
-113 -154 0
-113 -153 0
-115 -153 0
-119 -199 0
-115 -203 0
-119 -203 0
-113 -201 0
-119 -222 0
-113 -220 0
-116 -221 0
-114 -218 0
-119 -268 0
-115 -268 0
-116 -270 0
-118 -270 0
-124 -149 0
-120 -149 0
-124 -154 0
-123 -152 0
-120 -172 0
-124 -174 0
-126 -170 0
-122 -172 0
-126 -191 0
-122 -193 0
-122 -194 0
-126 -192 0
-121 -206 0
-125 -207 0
-125 -205 0
-125 -204 0
-122 -220 0
-121 -224 0
-122 -224 0
-126 -218 0
-123 -236 0
-122 -234 0
-121 -232 0
-124 -235 0
-125 -246 0
-122 -249 0
-122 -247 0
-125 -250 0
-122 -265 0
-124 -261 0
-121 -264 0
-126 -263 0
-122 -283 0
-122 -287 0
-120 -283 0
-122 -286 0
-123 -292 0
-122 -293 0
-125 -294 0
-124 -292 0
-122 -301 0
-123 -296 0
-124 -300 0
-122 -300 0
-129 -137 0
-132 -134 0
-133 -136 0
-133 -135 0
-129 -168 0
-128 -166 0
-127 -165 0
-132 -162 0
-131 -191 0
-128 -196 0
-131 -194 0
-133 -192 0
-129 -212 0
-129 -213 0
-128 -212 0
-133 -213 0
-131 -243 0
-129 -243 0
-129 -242 0
-128 -242 0
-129 -272 0
-133 -272 0
-127 -267 0
-132 -272 0
-132 -276 0
-130 -275 0
-128 -274 0
-129 -279 0
-136 -147 0
-136 -145 0
-139 -144 0
-134 -141 0
-140 -162 0
-140 -166 0
-134 -168 0
-134 -162 0
-134 -184 0
-140 -183 0
-137 -189 0
-136 -188 0
-136 -192 0
-140 -194 0
-134 -190 0
-137 -194 0
-139 -273 0
-135 -271 0
-136 -272 0
-137 -269 0
-138 -302 0
-135 -302 0
-136 -305 0
-138 -306 0
-145 -161 0
-145 -155 0
-145 -156 0
-143 -161 0
-145 -167 0
-142 -168 0
-143 -166 0
-141 -162 0
-141 -182 0
-144 -177 0
-142 -182 0
-146 -177 0
-143 -216 0
-144 -211 0
-146 -216 0
-144 -215 0
-143 -236 0
-145 -235 0
-143 -238 0
-144 -235 0
-142 -240 0
-146 -243 0
-143 -239 0
-145 -244 0
-141 -252 0
-142 -251 0
-141 -250 0
-145 -252 0
-147 -261 0
-141 -260 0
-145 -263 0
-142 -260 0
-141 -286 0
-144 -286 0
-142 -286 0
-146 -284 0
-142 -297 0
-144 -297 0
-147 -295 0
-147 -296 0
-146 -305 0
-145 -304 0
-141 -304 0
-147 -308 0
-152 -170 0
-148 -172 0
-150 -171 0
-149 -175 0
-150 -198 0
-151 -200 0
-154 -203 0
-153 -203 0
-149 -224 0
-148 -222 0
-153 -224 0
-148 -224 0
-154 -266 0
-148 -265 0
-152 -260 0
-154 -262 0
-152 -297 0
-152 -301 0
-151 -298 0
-150 -295 0
-156 -164 0
-160 -164 0
-156 -168 0
-161 -164 0
-156 -172 0
-155 -169 0
-157 -169 0
-157 -173 0
-158 -215 0
-158 -216 0
-158 -211 0
-158 -212 0
-160 -241 0
-159 -244 0
-157 -244 0
-157 -242 0
-160 -247 0
-155 -247 0
-158 -246 0
-157 -249 0
-155 -275 0
-157 -278 0
-158 -280 0
-157 -275 0
-161 -309 0
-156 -311 0
-159 -313 0
-158 -310 0
-164 -176 0
-168 -181 0
-163 -176 0
-168 -177 0
-162 -195 0
-168 -196 0
-163 -193 0
-164 -193 0
-166 -215 0
-164 -215 0
-164 -212 0
-165 -213 0
-167 -253 0
-165 -255 0
-166 -253 0
-166 -255 0
-167 -263 0
-163 -266 0
-163 -261 0
-163 -262 0
-166 -270 0
-164 -268 0
-168 -272 0
-165 -273 0
-164 -280 0
-163 -277 0
-164 -275 0
-165 -278 0
-165 -296 0
-163 -299 0
-165 -297 0
-167 -295 0
-170 -176 0
-169 -182 0
-175 -182 0
-173 -177 0
-170 -196 0
-171 -196 0
-169 -190 0
-175 -194 0
-177 -209 0
-179 -209 0
-182 -205 0
-180 -209 0
-181 -216 0
-178 -211 0
-181 -215 0
-176 -217 0
-176 -229 0
-179 -226 0
-177 -231 0
-179 -231 0
-178 -255 0
-181 -254 0
-180 -256 0
-181 -255 0
-178 -269 0
-177 -271 0
-176 -268 0
-181 -269 0
-182 -276 0
-181 -280 0
-180 -279 0
-180 -274 0
-178 -314 0
-176 -311 0
-179 -309 0
-177 -312 0
-184 -194 0
-189 -193 0
-184 -192 0
-189 -191 0
-187 -203 0
-185 -202 0
-186 -203 0
-186 -202 0
-183 -238 0
-186 -232 0
-188 -237 0
-186 -237 0
-184 -253 0
-187 -256 0
-185 -257 0
-187 -258 0
-184 -289 0
-185 -290 0
-188 -290 0
-185 -288 0
-183 -313 0
-184 -314 0
-186 -313 0
-184 -309 0
-193 -198 0
-191 -201 0
-196 -201 0
-191 -203 0
-191 -245 0
-194 -241 0
-196 -242 0
-194 -239 0
-191 -249 0
-190 -249 0
-195 -249 0
-190 -250 0
-194 -267 0
-193 -272 0
-190 -272 0
-192 -273 0
-196 -299 0
-190 -301 0
-191 -296 0
-196 -296 0
-192 -314 0
-191 -312 0
-196 -313 0
-193 -313 0
-201 -265 0
-203 -265 0
-203 -266 0
-202 -266 0
-198 -280 0
-200 -276 0
-198 -275 0
-199 -277 0
-200 -294 0
-202 -294 0
-198 -294 0
-199 -288 0
-197 -300 0
-200 -297 0
-200 -301 0
-201 -301 0
-206 -219 0
-207 -218 0
-208 -221 0
-210 -223 0
-208 -243 0
-205 -240 0
-205 -245 0
-206 -245 0
-204 -265 0
-205 -263 0
-206 -261 0
-209 -265 0
-205 -267 0
-208 -272 0
-206 -267 0
-210 -271 0
-210 -278 0
-205 -274 0
-206 -275 0
-210 -277 0
-205 -299 0
-207 -301 0
-207 -298 0
-210 -301 0
-209 -302 0
-210 -305 0
-210 -307 0
-207 -308 0
-208 -312 0
-206 -313 0
-208 -315 0
-210 -312 0
-212 -222 0
-212 -223 0
-217 -222 0
-216 -218 0
-212 -251 0
-215 -249 0
-217 -246 0
-215 -248 0
-213 -280 0
-213 -279 0
-216 -279 0
-211 -275 0
-211 -310 0
-215 -315 0
-215 -310 0
-213 -309 0
-220 -230 0
-222 -225 0
-224 -225 0
-223 -228 0
-221 -265 0
-220 -263 0
-222 -265 0
-224 -265 0
-223 -274 0
-221 -280 0
-224 -278 0
-219 -280 0
-224 -285 0
-220 -284 0
-221 -286 0
-221 -283 0
-222 -313 0
-218 -312 0
-218 -310 0
-223 -312 0
-228 -313 0
-226 -313 0
-230 -314 0
-226 -309 0
-234 -313 0
-232 -313 0
-232 -310 0
-234 -315 0
-242 -249 0
-240 -246 0
-239 -246 0
-245 -252 0
-244 -264 0
-241 -264 0
-243 -263 0
-241 -261 0
-241 -310 0
-243 -311 0
-240 -314 0
-239 -313 0
-248 -260 0
-252 -266 0
-248 -262 0
-251 -264 0
-250 -278 0
-252 -279 0
-249 -276 0
-246 -277 0
-253 -273 0
-253 -268 0
-258 -272 0
-257 -271 0
-254 -315 0
-254 -310 0
-254 -313 0
-258 -315 0
-262 -271 0
-264 -271 0
-263 -270 0
-263 -268 0
-265 -309 0
-262 -314 0
-263 -313 0
-263 -309 0
-267 -290 0
-267 -291 0
-269 -291 0
-267 -294 0
-272 -297 0
-269 -299 0
-267 -299 0
-273 -299 0
-280 -291 0
-279 -291 0
-275 -293 0
-276 -289 0
-286 -310 0
-281 -311 0
-282 -314 0
-284 -311 0
-293 -315 0
-294 -313 0
-288 -309 0
-289 -311 0
-301 -305 0
-298 -308 0
-299 -306 0
-298 -307 0
-300 -312 0
-298 -315 0
-296 -315 0
-299 -315 0
